NAME: binpacking2d-12.bp2d
COMMENT: gcut12
NB_ITEMS: 50
BIN_WIDTH: 1000
BIN_HEIGHT: 1000

ITEMS [id width height]:
1 572 665
2 482 640
3 264 594
4 349 566
5 276 660
6 745 422
7 434 622
8 446 433
9 668 506
10 405 635
11 486 320
12 554 549
13 392 491
14 459 528
15 426 579
16 728 359
17 644 465
18 382 323
19 268 352
20 324 512
21 277 426
22 254 685
23 483 532
24 678 414
25 546 590
26 716 640
27 542 400
28 634 596
29 497 696
30 417 300
31 290 605
32 321 520
33 543 290
34 599 269
35 467 679
36 583 421
37 729 723
38 465 590
39 614 585
40 446 327
41 734 616
42 479 606
43 656 278
44 537 355
45 604 519
46 746 596
47 439 281
48 339 405
49 273 526
50 625 568